GLPSOL--GLPK LP/MIP Solver 5.0
Parameter(s) specified in the command line:
 --lp ../modeles/15_479.lp --log 15_479.log
Reading problem data from '../modeles/15_479.lp'...
7246 rows, 14400 columns, 50370 non-zeros
7185 integer variables, all of which are binary
21667 lines were read
GLPK Integer Optimizer 5.0
7246 rows, 14400 columns, 50370 non-zeros
7185 integer variables, all of which are binary
Preprocessing...
7110 constraint coefficient(s) were reduced
7246 rows, 14385 columns, 50355 non-zeros
7185 integer variables, all of which are binary
Scaling...
 A: min|aij| =  1.743e-05  max|aij| =  4.000e+00  ratio =  2.294e+05
GM: min|aij| =  4.569e-02  max|aij| =  2.189e+01  ratio =  4.790e+02
EQ: min|aij| =  2.088e-03  max|aij| =  1.000e+00  ratio =  4.790e+02
2N: min|aij| =  1.953e-03  max|aij| =  1.761e+00  ratio =  9.014e+02
Constructing initial basis...
Size of triangular part is 7246
Solving LP relaxation...
GLPK Simplex Optimizer 5.0
7246 rows, 14385 columns, 50355 non-zeros
      0: obj =   3.000000000e+01 inf =   7.450e+01 (31)
Perturbing LP to avoid stalling [199]...
    374: obj =   4.998714261e-01 inf =   0.000e+00 (0)
Removing LP perturbation [1139]...
*  1139: obj =  -3.872491414e+00 inf =   7.006e-14 (0) 1
OPTIMAL LP SOLUTION FOUND
Integer optimization begins...
Long-step dual simplex will be used
+  1139: mip =     not found yet >=              -inf        (1; 0)
+  1343: mip =     not found yet >=  -3.872491414e+00        (205; 0)
+  1584: mip =     not found yet >=  -3.872491414e+00        (444; 0)
+  1762: >>>>>  -3.872491414e+00 >=  -3.872491414e+00 < 0.1% (618; 0)
+  1762: mip =  -3.872491414e+00 >=     tree is empty   0.0% (0; 1235)
INTEGER OPTIMAL SOLUTION FOUND
Time used:   13.7 secs
Memory used: 21.1 Mb (22127413 bytes)
